50
28233

807 337
949 487
811 429
943 549
19 708
735 353
175 625
679 143
554 676
995 44
993 294
440 164
532 14
573 127
777 237
594 788
955 983
278 736
375 250
386 160
752 202
567 640
222 378
527 232
389 922
934 928
579 877
740 291
995 155
140 55
949 872
860 682
992 853
536 403
892 853
526 241
396 654
239 384
169 288
974 20
717 88
934 874
654 520
263 806
688 885
664 847
673 579
679 805
105 737
732 664
